s 1
v 1 2 0 4 0 0 0 -8 9 0 -11 12 13 0 0 0 0 18 19 0 21 -22 -23 0 0 26 0 28 29 30 31 0 -33 0 -35 -36 37 -38 0 40 -41 0 0 -44 45 0 -47 -48 0 50 0 52 -53 0 0 0 0 -58 -59 60 0 -62 0 -64 65 66 67 68 0 0 71 0 73 0 75 76 0 0 0 0 81 0 -83 0 -85 -86 0 0 0 0 91 0 0 0 95 -96 -97 -98 0 100 0 0 -103 104 -105 0 0 0 0 110 111 112 0 0 0 116 117 -118 -119 0 0 0 0 0 125 0 0 0 0 0 0 -132 0 134 0 136 137 138 -139 140 0 -142 -143 0 145 -146 -147 0 0 -150 0 152 0 0 -155 0 157 -158 0 -160 0 0 0 0 0 0 167 0 -169 170 0 0 -173 0 175 176 177 0 -179 0 181 0 0 184 0 186 187 188 189 190 0 192 0 0 -195 0 -197 198 -199 0
t solve1: 1.000ms   solve2: 1.000ms
   improved:0.000%